cases/pglib-opf/pglib_opf_case30_ieee.m
ipopt
ACT
[info | PowerModels]: removing 3 cost terms from generator 4: Float64[]
[info | PowerModels]: removing 1 cost terms from generator 1: [1842.1527999999998, 0.0]
[info | PowerModels]: removing 3 cost terms from generator 5: Float64[]
[info | PowerModels]: removing 1 cost terms from generator 2: [5218.2254, 0.0]
[info | PowerModels]: removing 3 cost terms from generator 6: Float64[]
[info | PowerModels]: removing 3 cost terms from generator 3: Float64[]

******************************************************************************
This program contains Ipopt, a library for large-scale nonlinear optimization.
 Ipopt is released as open source code under the Eclipse Public License (EPL).
         For more information visit http://projects.coin-or.org/Ipopt
******************************************************************************

This is Ipopt version 3.13.2, running with linear solver mumps.
NOTE: Other linear solvers might be more efficient (see Ipopt documentation).

Number of nonzeros in equality constraint Jacobian...:     1117
Number of nonzeros in inequality constraint Jacobian.:      328
Number of nonzeros in Lagrangian Hessian.............:      533

Total number of variables............................:      314
                     variables with only lower bounds:        0
                variables with lower and upper bounds:      284
                     variables with only upper bounds:        0
Total number of equality constraints.................:      307
Total number of inequality constraints...............:      164
        inequality constraints with only lower bounds:       41
   inequality constraints with lower and upper bounds:        0
        inequality constraints with only upper bounds:      123

iter    objective    inf_pr   inf_du lg(mu)  ||d||  lg(rg) alpha_du alpha_pr  ls
   0  6.6429132e+01 9.42e-01 1.00e+02  -1.0 0.00e+00    -  0.00e+00 0.00e+00   0
   1  7.4979152e+03 1.73e-01 1.71e+02  -1.0 1.76e+00    -  5.75e-03 8.17e-01H  1
   2  7.1039158e+03 7.30e-02 1.14e+02  -1.0 1.62e+00    -  2.07e-02 5.77e-01f  1
   3  7.1234502e+03 7.06e-02 1.11e+02  -1.0 6.97e-01    -  9.57e-01 3.32e-02h  1
   4  8.2407655e+03 2.77e-04 5.28e+00  -1.0 2.76e-01    -  1.00e+00 1.00e+00h  1
   5  8.2518159e+03 6.65e-06 1.33e-01  -1.0 1.94e-02    -  1.00e+00 1.00e+00h  1
   6  8.2300117e+03 7.12e-05 3.68e+00  -2.5 1.67e-02    -  7.79e-01 9.56e-01f  1
   7  8.2132701e+03 5.63e-05 3.05e+00  -2.5 3.38e-02    -  8.39e-01 6.65e-01f  1
   8  8.2094948e+03 2.34e-05 1.22e+01  -2.5 6.43e-02    -  1.00e+00 5.83e-01f  1
   9  8.2094003e+03 2.89e-06 4.30e-02  -2.5 2.35e-02    -  1.00e+00 1.00e+00f  1
iter    objective    inf_pr   inf_du lg(mu)  ||d||  lg(rg) alpha_du alpha_pr  ls
  10  8.2095079e+03 2.45e-08 9.15e-05  -2.5 3.09e-03    -  1.00e+00 1.00e+00h  1
  11  8.2085541e+03 4.40e-07 4.94e-02  -3.8 1.17e-02    -  9.93e-01 9.33e-01f  1
  12  8.2085490e+03 2.35e-07 1.05e+01  -3.8 1.83e-03    -  1.00e+00 4.66e-01f  2
  13  8.2085551e+03 4.58e-09 1.21e-02  -3.8 1.14e-03    -  1.00e+00 1.00e+00h  1
  14  8.2085571e+03 3.90e-10 1.28e-04  -3.8 1.88e-04    -  1.00e+00 1.00e+00h  1
  15  8.2085199e+03 1.60e-07 1.29e+00  -5.7 5.16e-04    -  1.00e+00 8.70e-01f  1
  16  8.2085158e+03 1.81e-08 4.50e-04  -5.7 3.65e-04    -  1.00e+00 1.00e+00f  1
  17  8.2085159e+03 6.43e-11 5.61e-06  -5.7 1.29e-04    -  1.00e+00 1.00e+00h  1
  18  8.2085154e+03 2.03e-09 1.33e-03  -8.6 5.44e-05    -  9.89e-01 1.00e+00h  1
  19  8.2085154e+03 9.69e-10 7.46e-04  -8.6 4.71e-06    -  1.00e+00 5.00e-01f  2
iter    objective    inf_pr   inf_du lg(mu)  ||d||  lg(rg) alpha_du alpha_pr  ls
  20  8.2085154e+03 2.11e-14 1.06e-09  -8.6 2.39e-06    -  1.00e+00 1.00e+00h  1

Number of Iterations....: 20

                                   (scaled)                 (unscaled)
Objective...............:   1.5730473115898383e+02    8.2085154367398081e+03
Dual infeasibility......:   1.0593452510400450e-09    5.5279022963465390e-08
Constraint violation....:   2.1094237467877974e-14    2.1094237467877974e-14
Complementarity.........:   2.5089470465425869e-09    1.3092251205523509e-07
Overall NLP error.......:   2.5089470465425869e-09    1.3092251205523509e-07


Number of objective function evaluations             = 24
Number of objective gradient evaluations             = 21
Number of equality constraint evaluations            = 24
Number of inequality constraint evaluations          = 24
Number of equality constraint Jacobian evaluations   = 21
Number of inequality constraint Jacobian evaluations = 21
Number of Lagrangian Hessian evaluations             = 20
Total CPU secs in IPOPT (w/o function evaluations)   =      1.305
Total CPU secs in NLP function evaluations           =      2.275

EXIT: Optimal Solution Found.
Time to Solution........:4.321089029312134
